results/x-long/X-n157-k13.vrp_seed-46.vrp.sol
Route #1: 129 91 100 51 90 83 45 77 11 82 113 151
Route #2: 38 122 69 99 93 36 68 20 75 118 147 15
Route #3: 61 56 152 105 95 55 115 6 35 4 67 17
Route #4: 131 133 50 154 98 123 53 144 85 140 31 23
Route #5: 16 103 65 87 97 62 142 128 26 120 14 49
Route #6: 59 96 102 132 111 86 94 66 28 7 137 92
Route #7: 126 1 117 9 108 40 80 146 78 125 139 70
Route #8: 41 110 54 121 21 135 73 106 3 42 32 143
Route #9: 18 107 52 134 10 39 58 29 114 109 60 12
Route #10: 37 116 19 46 145 127 104 130 124 44 27 101
Route #11: 71 149 8 150 156 24 43 141 64 63 13 148
Route #12: 72 48 33 84 79 74 30 22 155 25 138 34
Route #13: 47 5 153 76 136 112 89 81 119 2 57 88
Cost 16876.000000